 &control
    calculation='vc-relax',
    restart_mode='from_scratch',
    prefix='base',
    pseudo_dir = '/home/kurt.rojas/apps/QE/PSEUDO/GBRV',
    outdir='./tmp',
    wf_collect = .true.,
    disk_io = 'low',
    verbosity = 'high',
    forc_conv_thr = 1.0D-4,
    etot_conv_thr = 1.0D-5,
 /
 &system
    ibrav = 0, nat=16 , ntyp= 2,
    ecutwfc = 60.0, ecutrho = 480.0,
    occupations = 'smearing',
    smearing ='gaussian', degauss = 0.01,
    nspin=2, 
    starting_magnetization(1)= 0.5,
 /
 &electrons
     electron_maxstep = 200
     conv_thr = 1.D-9 ,
     mixing_beta = 0.1D0, mixing_mode = 'local-TF',
     diagonalization='cg'
 /
 &ions
     ion_dynamics='bfgs'
 /
 &cell
    cell_dynamics = 'bfgs',
    press = 0.D0,
    press_conv_thr = 0.5D-1,
    cell_dofree = 2Dxy
 /
ATOMIC_SPECIES
 B   10.811    b_pbe_v1.4.uspp.F.UPF
 H    1.008    h_pbe_v1.4.uspp.F.UPF

CELL_PARAMETERS (angstrom)
6.029779962 -0.021702256 0.0
3.03397061 5.279421888 0.0
0.0 0.0 19.999994234

ATOMIC_POSITIONS (angstrom)
B 0.0 0.0 10.0
B 3.014889981 -0.010851128 10.0
B 1.516985305 2.639710944 10.0
B 4.531875286 2.628859816 10.0
B 1.510414879 0.817816121 10.0
B 4.52530486 0.806964993 10.0
B 3.027400184 3.457527065 10.0
B 6.042290165 3.446675937 10.0
H 1.513668951 1.728742494 10.966675989
H 4.528558932 1.717891366 10.966675989
H 3.030654256 4.368453438 10.966675989
H 6.045544237 4.35760231 10.966675989
H 1.513668951 1.728742494 9.033324011
H 4.528558932 1.717891366 9.033324011
H 3.030654256 4.368453438 9.033324011
H 6.045544237 4.35760231 9.033324011

K_POINTS (automatic)
9 9 1 0 0 0
