&bands
 prefix = 'MoS2'
 outdir = './outdir'
 filband= 'mos2.bands.dat'
/
